\ENCODING=ISO-8859-1
\Problem name: ilog.cplex

Minimize
 obj: _150step1#11 + _150step2#12 + _150step3#13 + _166step1#34 + _166step2#35
      + _166step3#36 + _167step1#57 + _167step2#58 + _167step3#59
      + _155step1#68 + _155step2#69 + _155step3#70 + _156step1#88
      + _156step2#89 + _156step3#90
Subject To
 LB_150T11#0:                    _150T11#0 >= 371
 LB_150T10#1:                    _150T10#1 >= 778
 prec_150T10_150T11#2:           - _150T11#0 + _150T10#1 >= 407
 LB_150T9#3:                     _150T9#2 >= 1066
 prec_150T9_150T10#4:            - _150T10#1 + _150T9#2 >= 288
 LB_150T8#5:                     _150T8#3 >= 2001
 prec_150T8_150T9#6:             - _150T9#2 + _150T8#3 >= 935
 LB_150T7#7:                     _150T7#4 >= 2771
 prec_150T7_150T8#8:             - _150T8#3 + _150T7#4 >= 770
 LB_150T6#9:                     _150T6#5 >= 3012
 prec_150T6_150T7#10:            - _150T7#4 + _150T6#5 >= 241
 LB_150T5#11:                    _150T5#6 >= 3921
 prec_150T5_150T6#12:            - _150T6#5 + _150T5#6 >= 909
 LB_150T4#13:                    _150T4#7 >= 4534
 prec_150T4_150T5#14:            - _150T5#6 + _150T4#7 >= 613
 LB_150T3#15:                    _150T3#8 >= 4800
 prec_150T3_150T4#16:            - _150T4#7 + _150T3#8 >= 266
 LB_150T2#17:                    _150T2#9 >= 5280
 prec_150T2_150T3#18:            - _150T3#8 + _150T2#9 >= 480
 LB_150T1#19:                    _150T1#10 >= 5495
 prec_150T1_150T2#20:            - _150T2#9 + _150T1#10 >= 215
 _150step1#21:                   _150T1#10 - 54150 _150step1#11 <= 5495
 _150step2#22:                   _150T1#10 - 53970 _150step2#12 <= 5675
 _150step3#23:                   _150T1#10 - 53790 _150step3#13 <= 5855
 LB_166T25#24:                   _166T25#14 >= 2961
 LB_166T24#25:                   _166T24#15 >= 3178
 prec_166T24_166T25#26:          - _166T25#14 + _166T24#15 >= 217
 LB_166T23#27:                   _166T23#16 >= 3351
 prec_166T23_166T24#28:          - _166T24#15 + _166T23#16 >= 173
 LB_166T22#29:                   _166T22#17 >= 3591
 prec_166T22_166T23#30:          - _166T23#16 + _166T22#17 >= 240
 LB_166T21#31:                   _166T21#18 >= 3771
 prec_166T21_166T22#32:          - _166T22#17 + _166T21#18 >= 180
 LB_166T20#33:                   _166T20#19 >= 3921
 prec_166T20_166T21#34:          - _166T21#18 + _166T20#19 >= 150
 LB_166T19#35:                   _166T19#20 >= 3966
 prec_166T19_166T20#36:          - _166T20#19 + _166T19#20 >= 45
 LB_166T18#37:                   _166T18#21 >= 4221
 prec_166T18_166T19#38:          - _166T19#20 + _166T18#21 >= 255
 LB_166T17#39:                   _166T17#22 >= 4551
 prec_166T17_166T18#40:          - _166T18#21 + _166T17#22 >= 330
 LB_166T16#41:                   _166T16#23 >= 4791
 prec_166T16_166T17#42:          - _166T17#22 + _166T16#23 >= 240
 LB_166T15#43:                   _166T15#24 >= 5031
 prec_166T15_166T16#44:          - _166T16#23 + _166T15#24 >= 240
 LB_166T14#45:                   _166T14#25 >= 5211
 prec_166T14_166T15#46:          - _166T15#24 + _166T14#25 >= 180
 LB_166T13#47:                   _166T13#26 >= 5412
 prec_166T13_166T14#48:          - _166T14#25 + _166T13#26 >= 201
 LB_166T12#49:                   _166T12#27 >= 5496
 prec_166T12_166T13#50:          - _166T13#26 + _166T12#27 >= 84
 LB_166T11#51:                   _166T11#28 >= 5701
 prec_166T11_166T12#52:          - _166T12#27 + _166T11#28 >= 205
 LB_166T10#53:                   _166T10#29 >= 6581
 prec_166T10_166T11#54:          - _166T11#28 + _166T10#29 >= 880
 LB_166T9#55:                    _166T9#30 >= 6990
 prec_166T9_166T10#56:           - _166T10#29 + _166T9#30 >= 409
 LB_166T8#57:                    _166T8#31 >= 7271
 prec_166T8_166T9#58:            - _166T9#30 + _166T8#31 >= 281
 LB_166T7#59:                    _166T7#32 >= 7563
 prec_166T7_166T8#60:            - _166T8#31 + _166T7#32 >= 292
 LB_166T6#61:                    _166T6#33 >= 7722
 prec_166T6_166T7#62:            - _166T7#32 + _166T6#33 >= 159
 _166step1#63:                   _166T6#33 - 54150 _166step1#34 <= 7722
 _166step2#64:                   _166T6#33 - 53970 _166step2#35 <= 7902
 _166step3#65:                   _166T6#33 - 53790 _166step3#36 <= 8082
 LB_167T6#66:                    _167T6#37 >= 921
 LB_167T7#67:                    _167T7#38 >= 1221
 prec_167T7_167T6#68:            - _167T6#37 + _167T7#38 >= 300
 LB_167T8#69:                    _167T8#39 >= 1401
 prec_167T8_167T7#70:            - _167T7#38 + _167T8#39 >= 180
 LB_167T9#71:                    _167T9#40 >= 1701
 prec_167T9_167T8#72:            - _167T8#39 + _167T9#40 >= 300
 LB_167T10#73:                   _167T10#41 >= 1941
 prec_167T10_167T9#74:           - _167T9#40 + _167T10#41 >= 240
 LB_167T11#75:                   _167T11#42 >= 2121
 prec_167T11_167T10#76:          - _167T10#41 + _167T11#42 >= 180
 LB_167T12#77:                   _167T12#43 >= 2541
 prec_167T12_167T11#78:          - _167T11#42 + _167T12#43 >= 420
 LB_167T13#79:                   _167T13#44 >= 2644
 prec_167T13_167T12#80:          - _167T12#43 + _167T13#44 >= 103
 LB_167T14#81:                   _167T14#45 >= 2713
 prec_167T14_167T13#82:          - _167T13#44 + _167T14#45 >= 69
 LB_167T15#83:                   _167T15#46 >= 2961
 prec_167T15_167T14#84:          - _167T14#45 + _167T15#46 >= 248
 LB_167T16#85:                   _167T16#47 >= 3141
 prec_167T16_167T15#86:          - _167T15#46 + _167T16#47 >= 180
 LB_167T17#87:                   _167T17#48 >= 3261
 prec_167T17_167T16#88:          - _167T16#47 + _167T17#48 >= 120
 LB_167T18#89:                   _167T18#49 >= 3441
 prec_167T18_167T17#90:          - _167T17#48 + _167T18#49 >= 180
 LB_167T19#91:                   _167T19#50 >= 3861
 prec_167T19_167T18#92:          - _167T18#49 + _167T19#50 >= 420
 LB_167T20#93:                   _167T20#51 >= 3951
 prec_167T20_167T19#94:          - _167T19#50 + _167T20#51 >= 90
 LB_167T21#95:                   _167T21#52 >= 3981
 prec_167T21_167T20#96:          - _167T20#51 + _167T21#52 >= 30
 LB_167T22#97:                   _167T22#53 >= 4161
 prec_167T22_167T21#98:          - _167T21#52 + _167T22#53 >= 180
 LB_167T23#99:                   _167T23#54 >= 4281
 prec_167T23_167T22#100:         - _167T22#53 + _167T23#54 >= 120
 LB_167T24#101:                  _167T24#55 >= 4401
 prec_167T24_167T23#102:         - _167T23#54 + _167T24#55 >= 120
 LB_167T25#103:                  _167T25#56 >= 4523
 prec_167T25_167T24#104:         - _167T24#55 + _167T25#56 >= 122
 _167step1#105:                  _167T25#56 - 54150 _167step1#57 <= 4523
 _167step2#106:                  _167T25#56 - 53970 _167step2#58 <= 4703
 _167step3#107:                  _167T25#56 - 53790 _167step3#59 <= 4883
 LB_155T18#108:                  _155T18#60 >= 55
 LB_155T19#109:                  _155T19#61 >= 475
 prec_155T19_155T18#110:         - _155T18#60 + _155T19#61 >= 420
 LB_155T20#111:                  _155T20#62 >= 565
 prec_155T20_155T19#112:         - _155T19#61 + _155T20#62 >= 90
 LB_155T21#113:                  _155T21#63 >= 595
 prec_155T21_155T20#114:         - _155T20#62 + _155T21#63 >= 30
 LB_155T22#115:                  _155T22#64 >= 775
 prec_155T22_155T21#116:         - _155T21#63 + _155T22#64 >= 180
 LB_155T23#117:                  _155T23#65 >= 895
 prec_155T23_155T22#118:         - _155T22#64 + _155T23#65 >= 120
 LB_155T24#119:                  _155T24#66 >= 1015
 prec_155T24_155T23#120:         - _155T23#65 + _155T24#66 >= 120
 LB_155T25#121:                  _155T25#67 >= 1125
 prec_155T25_155T24#122:         - _155T24#66 + _155T25#67 >= 110
 _155step1#123:                  _155T25#67 - 54150 _155step1#68 <= 1070
 _155step2#124:                  _155T25#67 - 53970 _155step2#69 <= 1250
 _155step3#125:                  _155T25#67 - 53790 _155step3#70 <= 1430
 LB_156T22#126:                  _156T22#71 >= 89
 LB_156T21#127:                  _156T21#72 >= 269
 prec_156T21_156T22#128:         - _156T22#71 + _156T21#72 >= 180
 LB_156T20#129:                  _156T20#73 >= 419
 prec_156T20_156T21#130:         - _156T21#72 + _156T20#73 >= 150
 LB_156T19#131:                  _156T19#74 >= 464
 prec_156T19_156T20#132:         - _156T20#73 + _156T19#74 >= 45
 LB_156T18#133:                  _156T18#75 >= 719
 prec_156T18_156T19#134:         - _156T19#74 + _156T18#75 >= 255
 LB_156T17#135:                  _156T17#76 >= 1049
 prec_156T17_156T18#136:         - _156T18#75 + _156T17#76 >= 330
 LB_156T16#137:                  _156T16#77 >= 1289
 prec_156T16_156T17#138:         - _156T17#76 + _156T16#77 >= 240
 LB_156T15#139:                  _156T15#78 >= 1529
 prec_156T15_156T16#140:         - _156T16#77 + _156T15#78 >= 240
 LB_156T14#141:                  _156T14#79 >= 1709
 prec_156T14_156T15#142:         - _156T15#78 + _156T14#79 >= 180
 LB_156T13#143:                  _156T13#80 >= 1910
 prec_156T13_156T14#144:         - _156T14#79 + _156T13#80 >= 201
 LB_156T12#145:                  _156T12#81 >= 1994
 prec_156T12_156T13#146:         - _156T13#80 + _156T12#81 >= 84
 LB_156T11#147:                  _156T11#82 >= 2199
 prec_156T11_156T12#148:         - _156T12#81 + _156T11#82 >= 205
 LB_156T10#149:                  _156T10#83 >= 3079
 prec_156T10_156T11#150:         - _156T11#82 + _156T10#83 >= 880
 LB_156T9#151:                   _156T9#84 >= 3499
 prec_156T9_156T10#152:          - _156T10#83 + _156T9#84 >= 420
 LB_156T8#153:                   _156T8#85 >= 3769
 prec_156T8_156T9#154:           - _156T9#84 + _156T8#85 >= 270
 LB_156T7#155:                   _156T7#86 >= 4039
 prec_156T7_156T8#156:           - _156T8#85 + _156T7#86 >= 270
 LB_156T6#157:                   _156T6#87 >= 4219
 prec_156T6_156T7#158:           - _156T7#86 + _156T6#87 >= 180
 _156step1#159:                  _156T6#87 - 54150 _156step1#88 <= 4130
 _156step2#160:                  _156T6#87 - 53970 _156step2#89 <= 4310
 _156step3#161:                  _156T6#87 - 53790 _156step3#90 <= 4490
 Domain_150T6_vs_156T6#162:      _150T6prec156T6#91 >= 0
 Domain_150T6_vs_166T6#163:      _150T6prec166T6#92 >= 0
 Domain_150T6_vs_167T6#164:      _150T6prec167T6#93 >= 0
 Domain_156T6_vs_166T6#165:      _156T6prec166T6#94 >= 0
 Domain_156T6_vs_167T6#166:      _156T6prec167T6#95 >= 0
 Domain_166T6_vs_167T6#167:      _166T6prec167T6#96 >= 0
 Domain_150T7_vs_156T7#168:      _150T7prec156T7#97 >= 0
 Domain_150T7_vs_166T7#169:      _150T7prec166T7#98 >= 0
 Domain_150T7_vs_167T7#170:      _150T7prec167T7#99 >= 0
 Domain_156T7_vs_166T7#171:      _156T7prec166T7#100 >= 0
 Domain_156T7_vs_167T7#172:      _156T7prec167T7#101 >= 0
 Domain_166T7_vs_167T7#173:      _166T7prec167T7#102 >= 0
 Domain_150T8_vs_156T8#174:      _150T8prec156T8#103 >= 0
 Domain_150T8_vs_166T8#175:      _150T8prec166T8#104 >= 0
 Domain_150T8_vs_167T8#176:      _150T8prec167T8#105 >= 0
 Domain_156T8_vs_166T8#177:      _156T8prec166T8#106 >= 0
 Domain_156T8_vs_167T8#178:      _156T8prec167T8#107 >= 0
 Domain_166T8_vs_167T8#179:      _166T8prec167T8#108 >= 0
 Domain_150T9_vs_156T9#180:      _150T9prec156T9#109 >= 0
 Domain_150T9_vs_166T9#181:      _150T9prec166T9#110 >= 0
 Domain_150T9_vs_167T9#182:      _150T9prec167T9#111 >= 0
 Domain_156T9_vs_166T9#183:      _156T9prec166T9#112 >= 0
 Domain_156T9_vs_167T9#184:      _156T9prec167T9#113 >= 0
 Domain_166T9_vs_167T9#185:      _166T9prec167T9#114 >= 0
 Domain_150T10_vs_156T10#186:    _150T10prec156T10#115 >= 0
 Domain_150T10_vs_166T10#187:    _150T10prec166T10#116 >= 0
 Domain_150T10_vs_167T10#188:    _150T10prec167T10#117 >= 0
 Domain_156T10_vs_166T10#189:    _156T10prec166T10#118 >= 0
 Domain_156T10_vs_167T10#190:    _156T10prec167T10#119 >= 0
 Domain_166T10_vs_167T10#191:    _166T10prec167T10#120 >= 0
 Domain_150T11_vs_156T11#192:    _150T11prec156T11#121 >= 0
 Domain_150T11_vs_166T11#193:    _150T11prec166T11#122 >= 0
 Domain_150T11_vs_167T11#194:    _150T11prec167T11#123 >= 0
 Domain_156T11_vs_166T11#195:    _156T11prec166T11#124 >= 0
 InitiDisj_156T11_vs_167T11#196: _167T11#42 - _156T11#82
                                 + 54150 _156T11prec167T11#125 >= 700
 InitiDisj_167T11_vs_156T11#197: - _167T11#42 + _156T11#82
                                 - 54150 _156T11prec167T11#125 >= -53770
 Domain_166T11_vs_167T11#198:    _166T11prec167T11#126 >= 0
 Domain_156T12_vs_166T12#199:    _156T12prec166T12#127 >= 0
 Domain_156T12_vs_167T12#200:    _156T12prec167T12#128 >= 0
 Domain_166T12_vs_167T12#201:    _166T12prec167T12#129 >= 0
 Domain_156T13_vs_166T13#202:    _156T13prec166T13#130 >= 0
 Domain_156T13_vs_167T13#203:    _156T13prec167T13#131 >= 0
 Domain_166T13_vs_167T13#204:    _166T13prec167T13#132 >= 0
 Domain_156T14_vs_166T14#205:    _156T14prec166T14#133 >= 0
 Domain_156T14_vs_167T14#206:    _156T14prec167T14#134 >= 0
 Domain_166T14_vs_167T14#207:    _166T14prec167T14#135 >= 0
 Domain_156T15_vs_166T15#208:    _156T15prec166T15#136 >= 0
 Domain_156T15_vs_167T15#209:    _156T15prec167T15#137 >= 0
 Domain_166T15_vs_167T15#210:    _166T15prec167T15#138 >= 0
 Domain_156T16_vs_166T16#211:    _156T16prec166T16#139 >= 0
 Domain_156T16_vs_167T16#212:    _156T16prec167T16#140 >= 0
 Domain_166T16_vs_167T16#213:    _166T16prec167T16#141 >= 0
 Domain_156T17_vs_166T17#214:    _156T17prec166T17#142 >= 0
 Domain_156T17_vs_167T17#215:    _156T17prec167T17#143 >= 0
 Domain_166T17_vs_167T17#216:    _166T17prec167T17#144 >= 0
 Domain_155T18_vs_156T18#217:    _155T18prec156T18#145 >= 0
 Domain_155T18_vs_166T18#218:    _155T18prec166T18#146 >= 0
 Domain_155T18_vs_167T18#219:    _155T18prec167T18#147 >= 0
 Domain_156T18_vs_166T18#220:    _156T18prec166T18#148 >= 0
 Domain_156T18_vs_167T18#221:    _156T18prec167T18#149 >= 0
 Domain_166T18_vs_167T18#222:    _166T18prec167T18#150 >= 0
 InitiDisj_155T19_vs_156T19#223: - _155T19#61 + _156T19#74
                                 + 54150 _155T19prec156T19#151 >= 90
 InitiDisj_156T19_vs_155T19#224: _155T19#61 - _156T19#74
                                 - 54150 _155T19prec156T19#151 >= -53955
 Domain_155T19_vs_166T19#225:    _155T19prec166T19#152 >= 0
 Domain_155T19_vs_167T19#226:    _155T19prec167T19#153 >= 0
 Domain_156T19_vs_166T19#227:    _156T19prec166T19#154 >= 0
 Domain_156T19_vs_167T19#228:    _156T19prec167T19#155 >= 0
 Domain_166T19_vs_167T19#229:    _166T19prec167T19#156 >= 0
 Domain_155T20_vs_156T20#230:    _155T20prec156T20#157 >= 0
 Domain_155T20_vs_166T20#231:    _155T20prec166T20#158 >= 0
 Domain_155T20_vs_167T20#232:    _155T20prec167T20#159 >= 0
 Domain_156T20_vs_166T20#233:    _156T20prec166T20#160 >= 0
 Domain_156T20_vs_167T20#234:    _156T20prec167T20#161 >= 0
 InitiDisj_166T20_vs_167T20#235: - _166T20#19 + _167T20#51
                                 + 54150 _166T20prec167T20#162 >= 45
 InitiDisj_167T20_vs_166T20#236: _166T20#19 - _167T20#51
                                 - 54150 _166T20prec167T20#162 >= -54120
 Domain_155T21_vs_156T21#237:    _155T21prec156T21#163 >= 0
 Domain_155T21_vs_166T21#238:    _155T21prec166T21#164 >= 0
 Domain_155T21_vs_167T21#239:    _155T21prec167T21#165 >= 0
 Domain_156T21_vs_166T21#240:    _156T21prec166T21#166 >= 0
 Domain_156T21_vs_167T21#241:    _156T21prec167T21#167 >= 0
 Domain_166T21_vs_167T21#242:    _166T21prec167T21#168 >= 0
 Domain_155T22_vs_156T22#243:    _155T22prec156T22#169 >= 0
 Domain_155T22_vs_166T22#244:    _155T22prec166T22#170 >= 0
 Domain_155T22_vs_167T22#245:    _155T22prec167T22#171 >= 0
 Domain_156T22_vs_166T22#246:    _156T22prec166T22#172 >= 0
 Domain_156T22_vs_167T22#247:    _156T22prec167T22#173 >= 0
 Domain_166T22_vs_167T22#248:    _166T22prec167T22#174 >= 0
 Domain_155T23_vs_166T23#249:    _155T23prec166T23#175 >= 0
 Domain_155T23_vs_167T23#250:    _155T23prec167T23#176 >= 0
 Domain_166T23_vs_167T23#251:    _166T23prec167T23#177 >= 0
 Domain_155T24_vs_166T24#252:    _155T24prec166T24#178 >= 0
 Domain_155T24_vs_167T24#253:    _155T24prec167T24#179 >= 0
 Domain_166T24_vs_167T24#254:    _166T24prec167T24#180 >= 0
 Domain_155T25_vs_166T25#255:    _155T25prec166T25#181 >= 0
 Domain_155T25_vs_167T25#256:    _155T25prec167T25#182 >= 0
 Domain_166T25_vs_167T25#257:    _166T25prec167T25#183 >= 0
Bounds
 0 <= _150T11#0 <= 2147483647
 0 <= _150T10#1 <= 2147483647
 0 <= _150T9#2 <= 2147483647
 0 <= _150T8#3 <= 2147483647
 0 <= _150T7#4 <= 2147483647
 0 <= _150T6#5 <= 2147483647
 0 <= _150T5#6 <= 2147483647
 0 <= _150T4#7 <= 2147483647
 0 <= _150T3#8 <= 2147483647
 0 <= _150T2#9 <= 2147483647
 0 <= _150T1#10 <= 2147483647
 0 <= _150step1#11 <= 1
 0 <= _150step2#12 <= 1
 0 <= _150step3#13 <= 1
 0 <= _166T25#14 <= 2147483647
 0 <= _166T24#15 <= 2147483647
 0 <= _166T23#16 <= 2147483647
 0 <= _166T22#17 <= 2147483647
 0 <= _166T21#18 <= 2147483647
 0 <= _166T20#19 <= 2147483647
 0 <= _166T19#20 <= 2147483647
 0 <= _166T18#21 <= 2147483647
 0 <= _166T17#22 <= 2147483647
 0 <= _166T16#23 <= 2147483647
 0 <= _166T15#24 <= 2147483647
 0 <= _166T14#25 <= 2147483647
 0 <= _166T13#26 <= 2147483647
 0 <= _166T12#27 <= 2147483647
 0 <= _166T11#28 <= 2147483647
 0 <= _166T10#29 <= 2147483647
 0 <= _166T9#30 <= 2147483647
 0 <= _166T8#31 <= 2147483647
 0 <= _166T7#32 <= 2147483647
 0 <= _166T6#33 <= 2147483647
 0 <= _166step1#34 <= 1
 0 <= _166step2#35 <= 1
 0 <= _166step3#36 <= 1
 0 <= _167T6#37 <= 2147483647
 0 <= _167T7#38 <= 2147483647
 0 <= _167T8#39 <= 2147483647
 0 <= _167T9#40 <= 2147483647
 0 <= _167T10#41 <= 2147483647
 0 <= _167T11#42 <= 2147483647
 0 <= _167T12#43 <= 2147483647
 0 <= _167T13#44 <= 2147483647
 0 <= _167T14#45 <= 2147483647
 0 <= _167T15#46 <= 2147483647
 0 <= _167T16#47 <= 2147483647
 0 <= _167T17#48 <= 2147483647
 0 <= _167T18#49 <= 2147483647
 0 <= _167T19#50 <= 2147483647
 0 <= _167T20#51 <= 2147483647
 0 <= _167T21#52 <= 2147483647
 0 <= _167T22#53 <= 2147483647
 0 <= _167T23#54 <= 2147483647
 0 <= _167T24#55 <= 2147483647
 0 <= _167T25#56 <= 2147483647
 0 <= _167step1#57 <= 1
 0 <= _167step2#58 <= 1
 0 <= _167step3#59 <= 1
 0 <= _155T18#60 <= 2147483647
 0 <= _155T19#61 <= 2147483647
 0 <= _155T20#62 <= 2147483647
 0 <= _155T21#63 <= 2147483647
 0 <= _155T22#64 <= 2147483647
 0 <= _155T23#65 <= 2147483647
 0 <= _155T24#66 <= 2147483647
 0 <= _155T25#67 <= 2147483647
 0 <= _155step1#68 <= 1
 0 <= _155step2#69 <= 1
 0 <= _155step3#70 <= 1
 0 <= _156T22#71 <= 2147483647
 0 <= _156T21#72 <= 2147483647
 0 <= _156T20#73 <= 2147483647
 0 <= _156T19#74 <= 2147483647
 0 <= _156T18#75 <= 2147483647
 0 <= _156T17#76 <= 2147483647
 0 <= _156T16#77 <= 2147483647
 0 <= _156T15#78 <= 2147483647
 0 <= _156T14#79 <= 2147483647
 0 <= _156T13#80 <= 2147483647
 0 <= _156T12#81 <= 2147483647
 0 <= _156T11#82 <= 2147483647
 0 <= _156T10#83 <= 2147483647
 0 <= _156T9#84 <= 2147483647
 0 <= _156T8#85 <= 2147483647
 0 <= _156T7#86 <= 2147483647
 0 <= _156T6#87 <= 2147483647
 0 <= _156step1#88 <= 1
 0 <= _156step2#89 <= 1
 0 <= _156step3#90 <= 1
 0 <= _150T6prec156T6#91 <= 1
 0 <= _150T6prec166T6#92 <= 1
 0 <= _150T6prec167T6#93 <= 1
 0 <= _156T6prec166T6#94 <= 1
 0 <= _156T6prec167T6#95 <= 1
 0 <= _166T6prec167T6#96 <= 1
 0 <= _150T7prec156T7#97 <= 1
 0 <= _150T7prec166T7#98 <= 1
 0 <= _150T7prec167T7#99 <= 1
 0 <= _156T7prec166T7#100 <= 1
 0 <= _156T7prec167T7#101 <= 1
 0 <= _166T7prec167T7#102 <= 1
 0 <= _150T8prec156T8#103 <= 1
 0 <= _150T8prec166T8#104 <= 1
 0 <= _150T8prec167T8#105 <= 1
 0 <= _156T8prec166T8#106 <= 1
 0 <= _156T8prec167T8#107 <= 1
 0 <= _166T8prec167T8#108 <= 1
 0 <= _150T9prec156T9#109 <= 1
 0 <= _150T9prec166T9#110 <= 1
 0 <= _150T9prec167T9#111 <= 1
 0 <= _156T9prec166T9#112 <= 1
 0 <= _156T9prec167T9#113 <= 1
 0 <= _166T9prec167T9#114 <= 1
 0 <= _150T10prec156T10#115 <= 1
 0 <= _150T10prec166T10#116 <= 1
 0 <= _150T10prec167T10#117 <= 1
 0 <= _156T10prec166T10#118 <= 1
 0 <= _156T10prec167T10#119 <= 1
 0 <= _166T10prec167T10#120 <= 1
 0 <= _150T11prec156T11#121 <= 1
 0 <= _150T11prec166T11#122 <= 1
 0 <= _150T11prec167T11#123 <= 1
 0 <= _156T11prec166T11#124 <= 1
 0 <= _156T11prec167T11#125 <= 1
 0 <= _166T11prec167T11#126 <= 1
 0 <= _156T12prec166T12#127 <= 1
 0 <= _156T12prec167T12#128 <= 1
 0 <= _166T12prec167T12#129 <= 1
 0 <= _156T13prec166T13#130 <= 1
 0 <= _156T13prec167T13#131 <= 1
 0 <= _166T13prec167T13#132 <= 1
 0 <= _156T14prec166T14#133 <= 1
 0 <= _156T14prec167T14#134 <= 1
 0 <= _166T14prec167T14#135 <= 1
 0 <= _156T15prec166T15#136 <= 1
 0 <= _156T15prec167T15#137 <= 1
 0 <= _166T15prec167T15#138 <= 1
 0 <= _156T16prec166T16#139 <= 1
 0 <= _156T16prec167T16#140 <= 1
 0 <= _166T16prec167T16#141 <= 1
 0 <= _156T17prec166T17#142 <= 1
 0 <= _156T17prec167T17#143 <= 1
 0 <= _166T17prec167T17#144 <= 1
 0 <= _155T18prec156T18#145 <= 1
 0 <= _155T18prec166T18#146 <= 1
 0 <= _155T18prec167T18#147 <= 1
 0 <= _156T18prec166T18#148 <= 1
 0 <= _156T18prec167T18#149 <= 1
 0 <= _166T18prec167T18#150 <= 1
 0 <= _155T19prec156T19#151 <= 1
 0 <= _155T19prec166T19#152 <= 1
 0 <= _155T19prec167T19#153 <= 1
 0 <= _156T19prec166T19#154 <= 1
 0 <= _156T19prec167T19#155 <= 1
 0 <= _166T19prec167T19#156 <= 1
 0 <= _155T20prec156T20#157 <= 1
 0 <= _155T20prec166T20#158 <= 1
 0 <= _155T20prec167T20#159 <= 1
 0 <= _156T20prec166T20#160 <= 1
 0 <= _156T20prec167T20#161 <= 1
 0 <= _166T20prec167T20#162 <= 1
 0 <= _155T21prec156T21#163 <= 1
 0 <= _155T21prec166T21#164 <= 1
 0 <= _155T21prec167T21#165 <= 1
 0 <= _156T21prec166T21#166 <= 1
 0 <= _156T21prec167T21#167 <= 1
 0 <= _166T21prec167T21#168 <= 1
 0 <= _155T22prec156T22#169 <= 1
 0 <= _155T22prec166T22#170 <= 1
 0 <= _155T22prec167T22#171 <= 1
 0 <= _156T22prec166T22#172 <= 1
 0 <= _156T22prec167T22#173 <= 1
 0 <= _166T22prec167T22#174 <= 1
 0 <= _155T23prec166T23#175 <= 1
 0 <= _155T23prec167T23#176 <= 1
 0 <= _166T23prec167T23#177 <= 1
 0 <= _155T24prec166T24#178 <= 1
 0 <= _155T24prec167T24#179 <= 1
 0 <= _166T24prec167T24#180 <= 1
 0 <= _155T25prec166T25#181 <= 1
 0 <= _155T25prec167T25#182 <= 1
 0 <= _166T25prec167T25#183 <= 1
Binaries
 _150step1#11  _150step2#12  _150step3#13  _166step1#34  _166step2#35 
 _166step3#36  _167step1#57  _167step2#58  _167step3#59  _155step1#68 
 _155step2#69  _155step3#70  _156step1#88  _156step2#89  _156step3#90 
 _150T6prec156T6#91  _150T6prec166T6#92  _150T6prec167T6#93 
 _156T6prec166T6#94  _156T6prec167T6#95  _166T6prec167T6#96 
 _150T7prec156T7#97  _150T7prec166T7#98  _150T7prec167T7#99 
 _156T7prec166T7#100  _156T7prec167T7#101  _166T7prec167T7#102 
 _150T8prec156T8#103  _150T8prec166T8#104  _150T8prec167T8#105 
 _156T8prec166T8#106  _156T8prec167T8#107  _166T8prec167T8#108 
 _150T9prec156T9#109  _150T9prec166T9#110  _150T9prec167T9#111 
 _156T9prec166T9#112  _156T9prec167T9#113  _166T9prec167T9#114 
 _150T10prec156T10#115  _150T10prec166T10#116  _150T10prec167T10#117 
 _156T10prec166T10#118  _156T10prec167T10#119  _166T10prec167T10#120 
 _150T11prec156T11#121  _150T11prec166T11#122  _150T11prec167T11#123 
 _156T11prec166T11#124  _156T11prec167T11#125  _166T11prec167T11#126 
 _156T12prec166T12#127  _156T12prec167T12#128  _166T12prec167T12#129 
 _156T13prec166T13#130  _156T13prec167T13#131  _166T13prec167T13#132 
 _156T14prec166T14#133  _156T14prec167T14#134  _166T14prec167T14#135 
 _156T15prec166T15#136  _156T15prec167T15#137  _166T15prec167T15#138 
 _156T16prec166T16#139  _156T16prec167T16#140  _166T16prec167T16#141 
 _156T17prec166T17#142  _156T17prec167T17#143  _166T17prec167T17#144 
 _155T18prec156T18#145  _155T18prec166T18#146  _155T18prec167T18#147 
 _156T18prec166T18#148  _156T18prec167T18#149  _166T18prec167T18#150 
 _155T19prec156T19#151  _155T19prec166T19#152  _155T19prec167T19#153 
 _156T19prec166T19#154  _156T19prec167T19#155  _166T19prec167T19#156 
 _155T20prec156T20#157  _155T20prec166T20#158  _155T20prec167T20#159 
 _156T20prec166T20#160  _156T20prec167T20#161  _166T20prec167T20#162 
 _155T21prec156T21#163  _155T21prec166T21#164  _155T21prec167T21#165 
 _156T21prec166T21#166  _156T21prec167T21#167  _166T21prec167T21#168 
 _155T22prec156T22#169  _155T22prec166T22#170  _155T22prec167T22#171 
 _156T22prec166T22#172  _156T22prec167T22#173  _166T22prec167T22#174 
 _155T23prec166T23#175  _155T23prec167T23#176  _166T23prec167T23#177 
 _155T24prec166T24#178  _155T24prec167T24#179  _166T24prec167T24#180 
 _155T25prec166T25#181  _155T25prec167T25#182  _166T25prec167T25#183 
End
